c Result of efficient AIG-to-CNF conversion using package CNF
p cnf 245 968
-2 3 103 171 200 0
2 -200 0
2 -3 0
2 -171 0
2 -103 0
-3 -4 -9 36 0
-3 4 9 36 0
3 -36 0
3 -4 9 0
3 4 -9 0
4 -5 6 0
4 5 -6 0
-4 5 6 0
-4 -5 -6 0
5 239 -242 0
5 240 -242 -243 0
-5 242 0
-5 -239 243 0
-5 -239 -240 0
-6 -7 -8 0
-6 7 8 0
6 7 -8 0
6 -7 8 0
7 -239 -241 0
-7 239 0
-7 241 0
8 -242 -244 0
-8 242 0
-8 244 0
9 10 -11 0
9 -10 11 0
-9 -10 -11 0
-9 10 11 0
10 -239 240 242 -243 0
10 239 -240 -242 -243 0
-10 -240 242 0
-10 -239 -242 0
-10 243 0
-10 239 240 0
11 12 -22 0
11 -12 21 22 0
11 -21 -22 0
-11 -21 22 0
-11 -12 21 -22 0
-11 12 22 0
-12 14 16 0
-12 13 16 0
12 -16 0
12 -13 -14 0
13 -239 -240 -243 0
13 -239 240 -242 243 0
13 239 -240 -242 0
13 -239 242 -243 0
-13 242 243 0
-13 239 240 0
-13 239 242 0
-13 -239 -240 243 0
-13 240 -242 -243 0
-14 -240 243 -15 0
-14 -240 -243 15 0
-14 240 -243 -15 0
-14 240 243 15 0
14 -240 243 15 0
14 -240 -243 -15 0
14 240 -243 15 0
14 240 243 -15 0
15 239 -242 0
-15 -239 0
-15 242 0
16 -17 -18 0
-16 17 0
-16 18 0
-17 239 242 0
17 -239 0
17 -242 0
-18 19 20 0
-18 -19 -20 0
18 -19 20 0
18 19 -20 0
19 240 -243 0
19 -243 -15 0
19 240 -15 0
-19 243 15 0
-19 -240 243 0
-19 -240 15 0
-20 -241 -244 0
-20 241 244 0
20 241 -244 0
20 -241 244 0
21 -13 -14 -16 0
-21 13 0
-21 14 0
-21 16 0
22 -23 -24 0
-22 23 0
-22 24 0
-23 -239 -242 0
-23 239 242 0
23 239 -242 0
23 -239 242 0
24 25 -26 0
24 -25 26 0
-24 -25 -26 0
-24 25 26 0
25 242 -243 0
-25 -242 0
-25 243 0
26 -27 28 29 0
26 -27 -28 -29 0
26 27 -28 29 0
26 27 28 -29 0
-26 -27 28 -29 0
-26 -27 -28 29 0
-26 27 -28 -29 0
-26 27 28 29 0
27 -239 240 -242 -243 0
27 -239 -240 -242 243 0
-27 242 0
-27 -240 -243 0
-27 239 0
-27 240 243 0
28 239 -240 0
-28 -239 0
-28 240 0
29 -30 31 0
29 30 -31 0
-29 30 31 0
-29 -30 -31 0
30 -239 -240 -242 -243 0
-30 243 0
-30 239 0
-30 242 0
-30 240 0
-31 241 32 0
-31 242 32 0
-31 -241 -242 -32 0
31 241 -32 0
31 -241 -242 32 0
31 242 -32 0
32 -33 34 0
32 -239 -244 34 0
-32 -34 0
-32 239 33 0
-32 244 33 0
33 -240 -243 0
-33 240 0
-33 243 0
34 -239 -240 -35 0
-34 239 0
-34 240 0
-34 35 0
35 -243 -244 0
-35 243 0
-35 244 0
-36 37 44 67 74 0
-36 -37 -44 -67 -74 0
-36 37 44 -67 -74 0
-36 -37 -44 67 74 0
36 37 -44 0
36 -37 44 0
36 -67 74 0
36 67 -74 0
-37 -38 -42 0
-37 38 42 0
37 38 -42 0
37 -38 42 0
38 39 -40 0
38 -39 40 0
-38 -39 -40 0
-38 39 40 0
39 -5 -8 0
39 -5 7 0
39 7 -8 0
-39 -7 8 0
-39 5 8 0
-39 5 -7 0
40 242 -243 0
40 -242 -41 0
-40 -242 41 0
-40 242 243 0
-41 242 0
-41 -243 -244 0
-41 243 244 0
41 -242 243 -244 0
41 -242 -243 244 0
42 239 -240 0
42 -239 -43 0
-42 -239 43 0
-42 239 240 0
-43 239 0
-43 -240 -241 0
-43 240 241 0
43 -239 240 -241 0
43 -239 -240 241 0
44 -45 64 0
44 45 -64 0
-44 45 64 0
-44 -45 -64 0
-45 46 48 0
-45 -46 -48 0
45 -46 48 0
45 46 -48 0
-46 13 17 0
-46 18 47 0
-46 17 18 0
-46 13 47 0
-46 -13 -17 -18 -47 0
46 13 -17 -47 0
46 -13 17 -18 0
46 -13 -18 47 0
46 -17 18 -47 0
-47 244 19 0
-47 -241 244 0
-47 -241 19 0
47 241 -244 0
47 -244 -19 0
47 241 -19 0
-48 21 -22 -49 0
-48 -21 22 -63 0
-48 21 63 0
-48 -21 49 -63 0
48 21 22 -63 0
48 -21 -22 -49 0
48 -21 63 0
48 21 49 -63 0
49 -14 -50 0
-49 14 0
-49 50 0
50 -51 52 53 0
50 -51 -52 -53 0
50 51 -52 53 0
50 51 52 -53 0
-50 -51 52 -53 0
-50 -51 -52 53 0
-50 51 -52 -53 0
-50 51 52 53 0
51 242 -243 -26 0
-51 26 0
-51 243 0
-51 -242 0
52 -242 243 -244 0
52 -242 -243 244 0
-52 242 0
-52 -243 -244 0
-52 243 244 0
53 -54 -55 -62 0
53 -54 55 62 0
53 54 55 -62 0
53 54 -55 62 0
-53 -54 -55 62 0
-53 -54 55 -62 0
-53 54 55 62 0
-53 54 -55 -62 0
54 -239 240 -241 0
54 -239 -240 241 0
-54 239 0
-54 -240 -241 0
-54 240 241 0
-55 56 59 0
-55 -56 -59 0
55 -56 59 0
55 56 -59 0
-56 57 58 0
56 -57 0
56 -58 0
57 -241 -242 -32 0
-57 241 0
-57 242 0
-57 32 0
58 -30 -31 0
-58 30 0
-58 31 0
-59 -35 34 -60 0
-59 35 -34 -61 0
-59 34 61 0
-59 -34 60 -61 0
59 35 34 -61 0
59 -35 -34 -60 0
59 -34 61 0
59 34 60 -61 0
60 -240 -241 0
-60 240 0
-60 241 0
-61 243 244 0
-61 240 241 0
-61 241 244 0
-61 240 243 0
61 -241 -243 0
61 -240 -244 0
-62 27 29 0
-62 28 29 0
-62 27 28 0
62 -27 -28 0
62 -28 -29 0
62 -27 -29 0
-63 23 24 0
-63 14 50 0
-63 23 14 0
-63 24 50 0
63 -23 -50 0
63 -14 -24 0
-64 65 66 0
64 -65 0
64 -66 0
65 -12 21 -22 0
-65 22 0
-65 -21 0
-65 12 0
66 -10 -11 0
-66 10 0
-66 11 0
-67 68 69 0
-67 -68 -69 0
67 -68 69 0
67 68 -69 0
68 -39 -40 0
68 -40 42 0
68 -39 42 0
-68 40 -42 0
-68 39 40 0
-68 39 -42 0
-69 70 72 0
-69 -70 -72 0
69 -70 72 0
69 70 -72 0
-70 -239 71 0
-70 60 71 0
70 -71 0
70 239 -60 0
-71 239 0
-71 240 241 0
71 -239 -240 0
71 -239 -241 0
-72 -242 73 0
-72 35 73 0
72 -73 0
72 242 -35 0
-73 242 0
-73 243 244 0
73 -242 -243 0
73 -242 -244 0
74 -75 100 0
74 75 -100 0
-74 75 100 0
-74 -75 -100 0
-75 -76 -96 0
-75 76 96 0
75 76 -96 0
75 -76 96 0
76 77 -80 0
76 -77 80 0
-76 -77 -80 0
-76 77 80 0
-77 78 79 0
77 -78 0
77 -79 0
78 -14 -22 -50 0
-78 50 0
-78 22 0
-78 14 0
79 -21 78 -63 0
-79 21 0
-79 63 0
-79 -78 0
80 -81 82 0
80 -23 81 -82 0
80 23 -81 0
-80 81 82 0
-80 23 81 0
-80 -23 -81 -82 0
81 13 -17 -47 0
81 -17 18 -47 0
-81 47 0
-81 17 0
-81 -13 -18 0
82 -83 84 94 0
82 -83 -84 -94 0
82 83 -84 94 0
82 83 84 -94 0
-82 -83 84 -94 0
-82 -83 -84 94 0
-82 83 -84 -94 0
-82 83 84 94 0
83 -242 -244 0
83 243 -244 0
-83 244 0
-83 242 -243 0
84 85 86 -87 0
84 85 -86 87 0
84 -85 -86 -87 0
84 -85 86 87 0
-84 85 86 87 0
-84 85 -86 -87 0
-84 -85 -86 87 0
-84 -85 86 -87 0
-85 54 55 0
-85 55 62 0
-85 54 62 0
85 -55 -62 0
85 -54 -55 0
85 -54 -62 0
86 -241 28 0
-86 241 0
-86 -28 0
-87 88 92 0
-87 -88 -92 0
87 -88 92 0
87 88 -92 0
-88 89 91 0
88 -89 0
88 -91 0
89 -34 90 -61 0
-89 34 0
-89 61 0
-89 -90 0
90 -35 -60 0
-90 35 0
-90 60 0
91 -56 -59 0
-91 56 0
-91 59 0
-92 93 0
92 -93 0
93 -241 -244 90 0
-93 241 0
-93 244 0
-93 -90 0
-94 95 0
94 -95 0
95 -52 -53 0
95 -51 -53 0
-95 53 0
-95 51 52 0
96 14 -97 0
96 50 -97 0
96 -14 -50 97 0
-96 50 97 0
-96 -14 -50 -97 0
-96 14 97 0
97 -99 0
97 18 -98 0
97 24 -98 0
-97 98 99 0
-97 -18 -24 99 0
98 -13 -47 0
-98 13 0
-98 47 0
99 -18 -24 98 0
-99 18 0
-99 24 0
-99 -98 0
-100 101 102 0
100 -101 0
100 -102 0
101 -46 -48 0
-101 46 0
-101 48 0
102 -45 -64 0
-102 45 0
-102 64 0
-103 104 117 139 152 0
-103 -104 -117 -139 -152 0
-103 104 117 -139 -152 0
-103 -104 -117 139 152 0
103 104 -117 0
103 -104 117 0
103 -139 152 0
103 139 -152 0
-104 105 112 0
-104 -105 -112 0
104 -105 112 0
104 105 -112 0
-105 106 107 0
-105 -106 -107 0
105 -106 107 0
105 106 -107 0
106 -68 70 0
106 70 -72 0
106 -68 -72 0
-106 -70 72 0
-106 68 -70 0
-106 68 72 0
-107 108 0
107 -108 0
108 -109 0
-108 109 0
109 -110 0
-109 110 0
-110 111 0
110 -111 0
111 -239 240 -241 0
-111 239 0
-111 -240 0
-111 241 0
-112 113 0
112 -113 0
113 -114 0
-113 114 0
114 -115 0
-114 115 0
-115 116 0
115 -116 0
116 -242 243 -244 0
-116 242 0
-116 -243 0
-116 244 0
117 118 -136 0
117 -118 136 0
-117 -118 -136 0
-117 118 136 0
118 119 -133 0
118 -119 133 0
-118 -119 -133 0
-118 119 133 0
-119 120 123 0
-119 -120 -123 0
119 -120 123 0
119 120 -123 0
-120 121 122 0
120 -121 0
120 -122 0
121 -23 81 -82 0
-121 82 0
-121 -81 0
-121 23 0
122 -77 80 0
-122 77 0
-122 -80 0
-123 23 131 0
-123 124 131 0
-123 -23 -124 -131 0
123 124 -131 0
123 -23 -124 131 0
123 23 -131 0
124 -35 -125 -126 0
124 -35 125 126 0
124 35 125 -126 0
124 35 -125 126 0
-124 -35 -125 126 0
-124 -35 125 -126 0
-124 35 125 126 0
-124 35 -125 -126 0
-125 84 94 0
-125 83 84 0
-125 83 94 0
125 -83 -84 0
125 -84 -94 0
125 -83 -94 0
126 -60 -127 -128 0
126 -60 127 128 0
126 60 127 -128 0
126 60 -127 128 0
-126 -60 -127 128 0
-126 -60 127 -128 0
-126 60 127 128 0
-126 60 -127 -128 0
-127 85 87 0
-127 85 86 0
-127 86 87 0
127 -86 -87 0
127 -85 -87 0
127 -85 -86 0
-128 129 130 0
128 -129 0
128 -130 0
129 -241 -244 -90 0
-129 241 0
-129 244 0
-129 90 0
130 -88 -92 0
-130 88 0
-130 92 0
-131 99 132 0
131 -99 0
131 -132 0
132 -14 -50 97 0
-132 14 0
-132 50 0
-132 -97 0
133 14 -134 0
133 82 -134 0
133 -14 -82 134 0
-133 82 134 0
-133 -14 -82 -134 0
-133 14 134 0
134 18 -135 0
134 50 -135 0
134 -18 -50 135 0
-134 50 135 0
-134 -18 -50 -135 0
-134 18 135 0
135 -24 -47 0
-135 24 0
-135 47 0
136 -137 138 0
-136 137 0
-136 -138 0
-137 76 96 0
137 -76 0
137 -96 0
138 -75 -100 0
-138 75 0
-138 100 0
-139 140 147 0
-139 -140 -147 0
139 -140 147 0
139 140 -147 0
-140 141 142 0
-140 -141 -142 0
140 -141 142 0
140 141 -142 0
141 -106 107 0
141 107 -112 0
141 -106 -112 0
-141 -107 112 0
-141 106 -107 0
-141 106 112 0
-142 143 0
142 -143 0
143 -144 0
-143 144 0
-144 145 146 0
144 -145 0
144 -146 0
145 -242 -35 0
-145 242 0
-145 35 0
-146 244 0
-146 -242 -243 0
146 243 -244 0
146 242 -244 0
-147 148 0
147 -148 0
148 -149 0
-148 149 0
-149 150 151 0
149 -150 0
149 -151 0
150 -239 -60 0
-150 239 0
-150 60 0
-151 241 0
-151 -239 -240 0
151 240 -241 0
151 239 -241 0
152 153 -168 0
152 -153 168 0
-152 -153 -168 0
-152 153 168 0
-153 154 165 0
-153 -154 -165 0
153 -154 165 0
153 154 -165 0
154 155 -162 0
154 -155 162 0
-154 -155 -162 0
-154 155 162 0
-155 23 159 0
-155 156 159 0
-155 -23 -156 -159 0
155 156 -159 0
155 -23 -156 159 0
155 23 -159 0
156 -157 158 0
156 157 -158 0
-156 157 158 0
-156 -157 -158 0
-157 125 126 0
-157 35 126 0
-157 35 125 0
157 -35 -126 0
157 -35 -125 0
157 -125 -126 0
-158 60 127 0
-158 127 128 0
-158 60 128 0
158 -127 -128 0
158 -60 -127 0
158 -60 -128 0
-159 160 161 0
159 -160 0
159 -161 0
160 -18 -50 135 0
-160 18 0
-160 50 0
-160 -135 0
161 -14 -82 134 0
-161 14 0
-161 82 0
-161 -134 0
162 14 -163 0
162 124 -163 0
162 -14 -124 163 0
-162 124 163 0
-162 -14 -124 -163 0
-162 14 163 0
163 18 -164 0
163 82 -164 0
163 -18 -82 164 0
-163 82 164 0
-163 -18 -82 -164 0
-163 18 164 0
164 -47 -50 0
-164 47 0
-164 50 0
-165 166 167 0
165 -166 0
165 -167 0
166 -23 -124 -131 0
-166 23 0
-166 124 0
-166 131 0
167 -120 -123 0
-167 120 0
-167 123 0
168 169 -170 0
-168 -169 0
-168 170 0
169 -119 133 0
-169 119 0
-169 -133 0
-170 118 136 0
170 -118 0
170 -136 0
-171 -172 -183 0
-171 172 183 0
171 172 -183 0
171 -172 183 0
-172 173 174 0
-172 -173 -174 0
172 -173 174 0
172 173 -174 0
173 -141 147 0
173 -141 -142 0
173 -142 147 0
-173 142 -147 0
-173 141 -147 0
-173 141 142 0
-174 175 179 0
-174 -175 -179 0
174 -175 179 0
174 175 -179 0
-175 176 0
175 -176 0
176 -177 0
-176 177 0
-177 178 0
177 -178 0
178 -60 86 0
-178 60 0
-178 -86 0
-179 180 0
179 -180 0
180 -181 0
-180 181 0
-181 182 0
181 -182 0
182 -35 83 0
-182 35 0
-182 -83 0
183 184 -197 0
183 -184 197 0
-183 -184 -197 0
-183 184 197 0
-184 185 194 0
-184 -185 -194 0
184 -185 194 0
184 185 -194 0
185 186 -191 0
185 -186 191 0
-185 -186 -191 0
-185 186 191 0
-186 23 188 0
-186 187 188 0
-186 -23 -187 -188 0
186 187 -188 0
186 -23 -187 188 0
186 23 -188 0
187 -157 -158 0
-187 157 0
-187 158 0
-188 189 190 0
188 -189 0
188 -190 0
189 -18 -82 164 0
-189 18 0
-189 82 0
-189 -164 0
190 -14 -124 163 0
-190 14 0
-190 124 0
-190 -163 0
191 14 -192 0
191 156 -192 0
191 -14 -156 192 0
-191 156 192 0
-191 -14 -156 -192 0
-191 14 192 0
192 18 -193 0
192 124 -193 0
192 -18 -124 193 0
-192 124 193 0
-192 -18 -124 -193 0
-192 18 193 0
193 -47 -82 0
-193 47 0
-193 82 0
-194 195 196 0
194 -195 0
194 -196 0
195 -23 -156 -159 0
-195 23 0
-195 156 0
-195 159 0
196 -155 162 0
-196 155 0
-196 -162 0
197 198 -199 0
-197 -198 0
-197 199 0
198 154 -165 0
-198 -154 0
-198 165 0
-199 153 168 0
199 -153 0
199 -168 0
-200 201 210 226 227 0
-200 -201 -210 -226 -227 0
-200 201 210 -226 -227 0
-200 -201 -210 226 227 0
200 201 -210 0
200 -201 210 0
200 -226 227 0
200 226 -227 0
201 -202 203 0
201 202 -203 0
-201 202 203 0
-201 -202 -203 0
202 -173 175 0
202 175 -179 0
202 -173 -179 0
-202 -175 179 0
-202 173 -175 0
-202 173 179 0
-203 204 208 0
203 -204 0
203 -208 0
204 205 -206 0
-204 -205 0
-204 206 0
205 -35 -83 0
-205 35 0
-205 83 0
-206 207 0
206 -207 0
207 -60 -86 0
-207 60 0
-207 86 0
208 207 -209 0
-208 -207 0
-208 209 0
-209 205 0
209 -205 0
210 211 -223 0
210 -211 223 0
-210 -211 -223 0
-210 211 223 0
-211 212 220 0
-211 -212 -220 0
211 -212 220 0
211 212 -220 0
212 213 -216 0
212 -213 216 0
-212 -213 -216 0
-212 213 216 0
-213 214 215 0
213 -214 0
213 -215 0
214 -18 -124 193 0
-214 18 0
-214 124 0
-214 -193 0
215 -14 -156 192 0
-215 14 0
-215 156 0
-215 -192 0
216 187 -217 0
216 -14 -187 217 0
216 14 -217 0
-216 14 217 0
-216 187 217 0
-216 -14 -187 -217 0
-217 -218 -219 0
-217 218 219 0
217 218 -219 0
217 -218 219 0
218 -47 -124 0
-218 47 0
-218 124 0
219 -18 -156 0
-219 18 0
-219 156 0
-220 221 222 0
220 -221 0
220 -222 0
221 -23 -187 -188 0
-221 23 0
-221 187 0
-221 188 0
222 -186 191 0
-222 186 0
-222 -191 0
223 224 -225 0
-223 -224 0
-223 225 0
224 185 -194 0
-224 -185 0
-224 194 0
-225 184 197 0
225 -184 0
225 -197 0
-226 -204 208 0
-226 202 208 0
226 -208 0
226 -202 204 0
227 228 -236 0
227 -228 236 0
-227 -228 -236 0
-227 228 236 0
228 229 -232 0
228 -229 232 0
-228 -229 -232 0
-228 229 232 0
-229 230 231 0
229 -230 0
229 -231 0
230 -14 -187 217 0
-230 -217 0
-230 187 0
-230 14 0
231 -213 216 0
-231 213 0
-231 -216 0
232 -233 234 0
232 233 -234 0
-232 233 234 0
-232 -233 -234 0
233 -47 -156 0
-233 47 0
-233 156 0
-234 18 235 0
-234 187 235 0
234 -235 0
234 -18 -187 0
235 218 -219 0
-235 -218 0
-235 219 0
236 237 -238 0
-236 -237 0
-236 238 0
237 212 -220 0
-237 -212 0
-237 220 0
-238 211 223 0
238 -211 0
238 -223 0
-245 0
2 0

